(set-option :produce-models true); benchmark generated from python API
(set-info :status unknown)
(declare-fun l_0_0_25 () Real)
(declare-fun _a_0_ () Real)
(declare-fun l_0_0_7 () Real)
(declare-fun l_0_0_28 () Real)
(declare-fun l_0_0_1 () Real)
(declare-fun _a_1_ () Real)
(declare-fun l_0_0_30 () Real)
(declare-fun l_0_0_29 () Real)
(declare-fun l_0_0_10 () Real)
(declare-fun l_0_0_4 () Real)
(declare-fun _a_2_ () Real)
(declare-fun l_0_0_8 () Real)
(declare-fun l_0_0_27 () Real)
(declare-fun l_0_0_26 () Real)
(declare-fun l_0_0_22 () Real)
(declare-fun l_0_0_19 () Real)
(declare-fun l_0_0_16 () Real)
(declare-fun l_0_0_13 () Real)
(declare-fun l_0_0_2 () Real)
(declare-fun _a_3_ () Real)
(declare-fun l_0_0_20 () Real)
(declare-fun l_0_0_14 () Real)
(declare-fun _a_4_ () Real)
(declare-fun _a_5_ () Real)
(declare-fun l_0_0_9 () Real)
(declare-fun l_0_0_3 () Real)
(declare-fun l_0_0_23 () Real)
(declare-fun l_0_0_21 () Real)
(declare-fun l_0_0_17 () Real)
(declare-fun l_0_0_15 () Real)
(declare-fun l_0_0_5 () Real)
(declare-fun l_0_0_24 () Real)
(declare-fun l_0_0_18 () Real)
(declare-fun l_0_0_11 () Real)
(declare-fun l_0_0_6 () Real)
(declare-fun l_0_0_12 () Real)
(declare-fun l_0_1_7 () Real)
(declare-fun l_0_1_25 () Real)
(declare-fun l_0_1_1 () Real)
(declare-fun l_0_1_30 () Real)
(declare-fun l_0_1_29 () Real)
(declare-fun l_0_1_28 () Real)
(declare-fun l_0_1_13 () Real)
(declare-fun l_0_1_16 () Real)
(declare-fun l_0_1_12 () Real)
(declare-fun l_0_1_11 () Real)
(declare-fun l_0_1_10 () Real)
(declare-fun l_0_1_4 () Real)
(declare-fun l_0_1_6 () Real)
(declare-fun l_0_1_5 () Real)
(declare-fun l_0_1_8 () Real)
(declare-fun l_0_1_26 () Real)
(declare-fun l_0_1_19 () Real)
(declare-fun l_0_1_2 () Real)
(declare-fun l_0_1_9 () Real)
(declare-fun l_0_1_27 () Real)
(declare-fun l_0_1_20 () Real)
(declare-fun l_0_1_3 () Real)
(declare-fun l_0_1_22 () Real)
(declare-fun l_0_1_14 () Real)
(declare-fun l_0_1_23 () Real)
(declare-fun l_0_1_21 () Real)
(declare-fun l_0_1_15 () Real)
(declare-fun l_0_1_24 () Real)
(declare-fun l_0_1_17 () Real)
(declare-fun l_0_1_18 () Real)
(declare-fun l_0_2_7 () Real)
(declare-fun l_0_2_31 () Real)
(declare-fun l_0_2_25 () Real)
(declare-fun l_0_2_1 () Real)
(declare-fun l_0_2_8 () Real)
(declare-fun l_0_2_32 () Real)
(declare-fun l_0_2_26 () Real)
(declare-fun l_0_2_19 () Real)
(declare-fun l_0_2_2 () Real)
(declare-fun l_0_2_36 () Real)
(declare-fun l_0_2_35 () Real)
(declare-fun l_0_2_34 () Real)
(declare-fun l_0_2_30 () Real)
(declare-fun l_0_2_29 () Real)
(declare-fun l_0_2_28 () Real)
(declare-fun l_0_2_13 () Real)
(declare-fun l_0_2_16 () Real)
(declare-fun l_0_2_12 () Real)
(declare-fun l_0_2_11 () Real)
(declare-fun l_0_2_10 () Real)
(declare-fun l_0_2_4 () Real)
(declare-fun l_0_2_6 () Real)
(declare-fun l_0_2_5 () Real)
(declare-fun l_0_2_9 () Real)
(declare-fun l_0_2_33 () Real)
(declare-fun l_0_2_27 () Real)
(declare-fun l_0_2_20 () Real)
(declare-fun l_0_2_3 () Real)
(declare-fun l_0_2_22 () Real)
(declare-fun l_0_2_14 () Real)
(declare-fun l_0_2_23 () Real)
(declare-fun l_0_2_21 () Real)
(declare-fun l_0_2_15 () Real)
(declare-fun l_0_2_24 () Real)
(declare-fun l_0_2_17 () Real)
(declare-fun l_0_2_18 () Real)
(declare-fun l_0_3_7 () Real)
(declare-fun l_0_3_25 () Real)
(declare-fun l_0_3_1 () Real)
(declare-fun l_0_3_28 () Real)
(declare-fun l_0_3_13 () Real)
(declare-fun l_0_3_10 () Real)
(declare-fun l_0_3_4 () Real)
(declare-fun l_0_3_30 () Real)
(declare-fun l_0_3_29 () Real)
(declare-fun l_0_3_16 () Real)
(declare-fun l_0_3_12 () Real)
(declare-fun l_0_3_11 () Real)
(declare-fun l_0_3_6 () Real)
(declare-fun l_0_3_5 () Real)
(declare-fun l_0_3_8 () Real)
(declare-fun l_0_3_27 () Real)
(declare-fun l_0_3_26 () Real)
(declare-fun l_0_3_22 () Real)
(declare-fun l_0_3_19 () Real)
(declare-fun l_0_3_14 () Real)
(declare-fun l_0_3_9 () Real)
(declare-fun l_0_3_2 () Real)
(declare-fun l_0_3_3 () Real)
(declare-fun l_0_3_20 () Real)
(declare-fun l_0_3_23 () Real)
(declare-fun l_0_3_21 () Real)
(declare-fun l_0_3_15 () Real)
(declare-fun l_0_3_24 () Real)
(declare-fun l_0_3_17 () Real)
(declare-fun l_0_3_18 () Real)
(assert
 (= (- _a_0_ (* l_0_0_25 l_0_0_25)) 0.0))
(assert
 (let ((?x169 (* l_0_0_7 l_0_0_7)))
 (let ((?x163 (* l_0_0_1 l_0_0_1)))
 (let ((?x164 (+ _a_1_ ?x163)))
 (= (- (- ?x164 (* (* 2.0 l_0_0_25) l_0_0_28)) ?x169) 0.0)))))
(assert
 (let ((?x193 (* l_0_0_30 l_0_0_30)))
 (let ((?x191 (* l_0_0_29 l_0_0_29)))
 (let ((?x189 (* l_0_0_28 l_0_0_28)))
 (let ((?x188 (- (+ _a_2_ (* (* 2.0 l_0_0_1) l_0_0_4)) (* (* 2.0 l_0_0_10) l_0_0_7))))
 (= (- (- (- ?x188 ?x189) ?x191) ?x193) 0.0))))))
(assert
 (let ((?x219 (+ (+ _a_3_ (* (* 2.0 l_0_0_1) l_0_0_2)) (* (* 2.0 l_0_0_13) l_0_0_16))))
 (let ((?x225 (- (- ?x219 (* (* 2.0 l_0_0_19) l_0_0_22)) (* (* 2.0 l_0_0_26) l_0_0_28))))
 (let ((?x231 (- (- ?x225 (* (* 2.0 l_0_0_27) l_0_0_29)) (* (* 2.0 l_0_0_7) l_0_0_8))))
 (= ?x231 0.0)))))
(assert
 (let ((?x269 (* l_0_0_27 l_0_0_27)))
 (let ((?x267 (* l_0_0_26 l_0_0_26)))
 (let ((?x266 (- (+ _a_4_ (* (* 2.0 l_0_0_13) l_0_0_14)) (* (* 2.0 l_0_0_19) l_0_0_20))))
 (= (- (- ?x266 ?x267) ?x269) 0.0)))))
(assert
 (let ((?x293 (- (- (+ _a_5_ (* l_0_0_13 l_0_0_13)) (* l_0_0_19 l_0_0_19)) (* (* 2.0 l_0_0_25) l_0_0_26))))
 (= ?x293 0.0)))
(assert
 (let ((?x322 (* l_0_0_9 l_0_0_9)))
 (let ((?x320 (* l_0_0_8 l_0_0_8)))
 (let ((?x318 (* l_0_0_3 l_0_0_3)))
 (let ((?x310 (* l_0_0_2 l_0_0_2)))
 (let ((?x309 (+ (* (* 2.0 l_0_0_14) l_0_0_16) (* (* 2.0 l_0_0_15) l_0_0_17))))
 (let ((?x317 (- (- (+ ?x309 ?x310) (* (* 2.0 l_0_0_20) l_0_0_22)) (* (* 2.0 l_0_0_21) l_0_0_23))))
 (= (- (- (+ ?x317 ?x318) ?x320) ?x322) 0.0))))))))
(assert
 (let ((?x368 (* l_0_0_24 l_0_0_24)))
 (let ((?x366 (* l_0_0_23 l_0_0_23)))
 (let ((?x364 (* l_0_0_22 l_0_0_22)))
 (let ((?x359 (* l_0_0_18 l_0_0_18)))
 (let ((?x357 (* l_0_0_17 l_0_0_17)))
 (let ((?x355 (* l_0_0_16 l_0_0_16)))
 (let ((?x354 (- (* (* (- 2.0) l_0_0_10) l_0_0_8) (* (* 2.0 l_0_0_11) l_0_0_9))))
 (let ((?x363 (+ (+ (+ (+ ?x354 ?x355) ?x357) ?x359) (* (* 2.0 l_0_0_2) l_0_0_4))))
 (let ((?x372 (+ (- (- (- ?x363 ?x364) ?x366) ?x368) (* (* 2.0 l_0_0_3) l_0_0_5))))
 (= ?x372 0.0)))))))))))
(assert
 (let ((?x408 (* l_0_0_6 l_0_0_6)))
 (let ((?x406 (* l_0_0_5 l_0_0_5)))
 (let ((?x404 (* l_0_0_4 l_0_0_4)))
 (let ((?x402 (* l_0_0_12 l_0_0_12)))
 (let ((?x405 (+ (- (- (* (- l_0_0_10) l_0_0_10) (* l_0_0_11 l_0_0_11)) ?x402) ?x404)))
 (= (+ (+ ?x405 ?x406) ?x408) 0.0)))))))
(assert
 (let ((?x430 (* l_0_0_21 l_0_0_21)))
 (let ((?x428 (* l_0_0_20 l_0_0_20)))
 (let ((?x426 (* l_0_0_15 l_0_0_15)))
 (let ((?x420 (* l_0_0_14 l_0_0_14)))
 (let ((?x427 (+ ?x420 ?x426)))
 (= (- (- ?x427 ?x428) ?x430) 0.0)))))))
(assert
 (>= l_0_0_1 0.0))
(assert
 (>= l_0_0_3 0.0))
(assert
 (>= l_0_0_6 0.0))
(assert
 (>= l_0_0_7 0.0))
(assert
 (>= l_0_0_9 0.0))
(assert
 (>= l_0_0_12 0.0))
(assert
 (>= l_0_0_13 0.0))
(assert
 (>= l_0_0_15 0.0))
(assert
 (>= l_0_0_18 0.0))
(assert
 (>= l_0_0_19 0.0))
(assert
 (>= l_0_0_21 0.0))
(assert
 (>= l_0_0_24 0.0))
(assert
 (>= l_0_0_25 0.0))
(assert
 (>= l_0_0_27 0.0))
(assert
 (>= l_0_0_30 0.0))
(assert
 (let ((?x463 (+ (- (* (* (- _a_0_) l_0_1_1) l_0_1_1) (* l_0_1_25 l_0_1_25)) (* 5.0 (* l_0_1_7 l_0_1_7)))))
 (= ?x463 0.0)))
(assert
 (let ((?x510 (* l_0_1_30 l_0_1_30)))
 (let ((?x508 (* l_0_1_29 l_0_1_29)))
 (let ((?x506 (* l_0_1_28 l_0_1_28)))
 (let ((?x504 (* l_0_1_13 l_0_1_13)))
 (let ((?x497 (* l_0_1_12 l_0_1_12)))
 (let ((?x498 (* 5.0 ?x497)))
 (let ((?x494 (* l_0_1_11 l_0_1_11)))
 (let ((?x495 (* 5.0 ?x494)))
 (let ((?x491 (* l_0_1_10 l_0_1_10)))
 (let ((?x492 (* 5.0 ?x491)))
 (let ((?x478 (* l_0_1_6 l_0_1_6)))
 (let ((?x479 (+ (+ (* l_0_1_4 l_0_1_4) (* l_0_1_5 l_0_1_5)) ?x478)))
 (let ((?x455 (- _a_0_)))
 (let ((?x487 (- (- (* ?x455 ?x479) (* (* (* 2.0 _a_1_) l_0_1_1) l_0_1_4)) (* (* _a_2_ l_0_1_1) l_0_1_1))))
 (let ((?x499 (+ (+ (+ (- ?x487 (* (* 2.0 l_0_1_10) l_0_1_7)) ?x492) ?x495) ?x498)))
 (let ((?x509 (- (- (- (+ ?x499 (* (* 20.0 l_0_1_13) l_0_1_16)) ?x504) ?x506) ?x508)))
 (= (- (- ?x509 ?x510) (/ 5.0 2.0)) 0.0))))))))))))))))))
(assert
 (let ((?x460 (* l_0_1_7 l_0_1_7)))
 (let ((?x504 (* l_0_1_13 l_0_1_13)))
 (let ((?x568 (* 10.0 ?x504)))
 (let ((?x563 (- (* (* (* (- 2.0) _a_0_) l_0_1_1) l_0_1_4) (* (* _a_1_ l_0_1_1) l_0_1_1))))
 (let ((?x572 (- (+ (+ ?x563 (* (* 10.0 l_0_1_10) l_0_1_7)) ?x568) (* (* 2.0 l_0_1_25) l_0_1_28))))
 (= (- (- ?x572 ?x460) 4.0) 0.0)))))))
(assert
 (let ((?x608 (* l_0_1_19 l_0_1_19)))
 (let ((?x609 (* 10.0 ?x608)))
 (let ((?x607 (- (* (* (* (- 2.0) _a_0_) l_0_1_1) l_0_1_2) (* (* _a_5_ l_0_1_1) l_0_1_1))))
 (let ((?x615 (+ (- (+ ?x607 ?x609) (* (* 2.0 l_0_1_25) l_0_1_26)) (* (* 10.0 l_0_1_7) l_0_1_8))))
 (= (+ ?x615 1.0) 0.0))))))
(assert
 (let ((?x654 (* l_0_1_27 l_0_1_27)))
 (let ((?x652 (* l_0_1_26 l_0_1_26)))
 (let ((?x608 (* l_0_1_19 l_0_1_19)))
 (let ((?x643 (- (* (- _a_0_) (+ (* l_0_1_2 l_0_1_2) (* l_0_1_3 l_0_1_3))) (* (* _a_4_ l_0_1_1) l_0_1_1))))
 (let ((?x650 (+ (- ?x643 (* (* (* 2.0 _a_5_) l_0_1_1) l_0_1_2)) (* (* 20.0 l_0_1_19) l_0_1_20))))
 (let ((?x658 (+ (- (- (- ?x650 ?x608) ?x652) ?x654) (* 5.0 (* l_0_1_8 l_0_1_8)))))
 (= (+ ?x658 (* 5.0 (* l_0_1_9 l_0_1_9))) 0.0))))))))
(assert
 (let ((?x700 (+ (* (* 2.0 l_0_1_2) l_0_1_4) (* (* 2.0 l_0_1_3) l_0_1_5))))
 (let ((?x455 (- _a_0_)))
 (let ((?x706 (- (- (* ?x455 ?x700) (* (* (* 2.0 _a_1_) l_0_1_1) l_0_1_2)) (* (* _a_3_ l_0_1_1) l_0_1_1))))
 (let ((?x710 (+ (- ?x706 (* (* (* 2.0 _a_5_) l_0_1_1) l_0_1_4)) (* (* 10.0 l_0_1_10) l_0_1_8))))
 (let ((?x715 (+ (+ ?x710 (* (* 10.0 l_0_1_11) l_0_1_9)) (* (* 20.0 l_0_1_13) l_0_1_14))))
 (let ((?x720 (- (+ ?x715 (* (* 20.0 l_0_1_19) l_0_1_22)) (* (* 2.0 l_0_1_26) l_0_1_28))))
 (let ((?x726 (- (- ?x720 (* (* 2.0 l_0_1_27) l_0_1_29)) (* (* 2.0 l_0_1_7) l_0_1_8))))
 (= ?x726 0.0)))))))))
(assert
 (let ((?x659 (* l_0_1_9 l_0_1_9)))
 (let ((?x656 (* l_0_1_8 l_0_1_8)))
 (let ((?x802 (* l_0_1_15 l_0_1_15)))
 (let ((?x803 (* 10.0 ?x802)))
 (let ((?x799 (* l_0_1_14 l_0_1_14)))
 (let ((?x800 (* 10.0 ?x799)))
 (let ((?x700 (+ (* (* 2.0 l_0_1_2) l_0_1_4) (* (* 2.0 l_0_1_3) l_0_1_5))))
 (let ((?x792 (- (* (- _a_1_) (+ (* l_0_1_2 l_0_1_2) (* l_0_1_3 l_0_1_3))) (* (* (* 2.0 _a_3_) l_0_1_1) l_0_1_2))))
 (let ((?x798 (- (- ?x792 (* (* (* 2.0 _a_4_) l_0_1_1) l_0_1_4)) (* _a_5_ ?x700))))
 (let ((?x810 (+ (- (+ (+ ?x798 ?x800) ?x803) (* (* 2.0 l_0_1_19) l_0_1_22)) (* (* 20.0 l_0_1_20) l_0_1_22))))
 (= (- (- (+ ?x810 (* (* 20.0 l_0_1_21) l_0_1_23)) ?x656) ?x659) 0.0))))))))))))
(assert
 (let ((?x478 (* l_0_1_6 l_0_1_6)))
 (let ((?x479 (+ (+ (* l_0_1_4 l_0_1_4) (* l_0_1_5 l_0_1_5)) ?x478)))
 (let ((?x700 (+ (* (* 2.0 l_0_1_2) l_0_1_4) (* (* 2.0 l_0_1_3) l_0_1_5))))
 (let ((?x787 (- _a_1_)))
 (let ((?x882 (- (- (* ?x787 ?x700) (* (* (* 2.0 _a_2_) l_0_1_1) l_0_1_2)) (* (* (* 2.0 _a_3_) l_0_1_1) l_0_1_4))))
 (let ((?x889 (- (- (- ?x882 (* _a_5_ ?x479)) (* (* 2.0 l_0_1_10) l_0_1_8)) (* (* 2.0 l_0_1_11) l_0_1_9))))
 (let ((?x895 (+ (- ?x889 (* (* 2.0 l_0_1_13) l_0_1_14)) (* (* 20.0 l_0_1_14) l_0_1_16))))
 (let ((?x901 (+ (+ ?x895 (* (* 20.0 l_0_1_15) l_0_1_17)) (* 10.0 (* l_0_1_22 l_0_1_22)))))
 (let ((?x907 (+ (+ ?x901 (* 10.0 (* l_0_1_23 l_0_1_23))) (* 10.0 (* l_0_1_24 l_0_1_24)))))
 (= ?x907 0.0)))))))))))
(assert
 (let ((?x497 (* l_0_1_12 l_0_1_12)))
 (let ((?x494 (* l_0_1_11 l_0_1_11)))
 (let ((?x491 (* l_0_1_10 l_0_1_10)))
 (let ((?x478 (* l_0_1_6 l_0_1_6)))
 (let ((?x479 (+ (+ (* l_0_1_4 l_0_1_4) (* l_0_1_5 l_0_1_5)) ?x478)))
 (let ((?x787 (- _a_1_)))
 (let ((?x970 (- (- (* ?x787 ?x479) (* (* (* 2.0 _a_2_) l_0_1_1) l_0_1_4)) ?x491)))
 (let ((?x977 (+ (- (- (- ?x970 ?x494) ?x497) (* (* 2.0 l_0_1_13) l_0_1_16)) (* 10.0 (* l_0_1_16 l_0_1_16)))))
 (let ((?x983 (+ (+ ?x977 (* 10.0 (* l_0_1_17 l_0_1_17))) (* 10.0 (* l_0_1_18 l_0_1_18)))))
 (= ?x983 0.0)))))))))))
(assert
 (let ((?x905 (* l_0_1_24 l_0_1_24)))
 (let ((?x902 (* l_0_1_23 l_0_1_23)))
 (let ((?x899 (* l_0_1_22 l_0_1_22)))
 (let ((?x802 (* l_0_1_15 l_0_1_15)))
 (let ((?x799 (* l_0_1_14 l_0_1_14)))
 (let ((?x478 (* l_0_1_6 l_0_1_6)))
 (let ((?x479 (+ (+ (* l_0_1_4 l_0_1_4) (* l_0_1_5 l_0_1_5)) ?x478)))
 (let ((?x700 (+ (* (* 2.0 l_0_1_2) l_0_1_4) (* (* 2.0 l_0_1_3) l_0_1_5))))
 (let ((?x1021 (- (* (- _a_2_) (+ (* l_0_1_2 l_0_1_2) (* l_0_1_3 l_0_1_3))) (* _a_3_ ?x700))))
 (let ((?x1028 (- (- (- (- (- (- ?x1021 (* _a_4_ ?x479)) ?x799) ?x802) ?x899) ?x902) ?x905)))
 (= ?x1028 0.0))))))))))))
(assert
 (let ((?x478 (* l_0_1_6 l_0_1_6)))
 (let ((?x479 (+ (+ (* l_0_1_4 l_0_1_4) (* l_0_1_5 l_0_1_5)) ?x478)))
 (let ((?x700 (+ (* (* 2.0 l_0_1_2) l_0_1_4) (* (* 2.0 l_0_1_3) l_0_1_5))))
 (let ((?x1013 (- _a_2_)))
 (let ((?x1090 (- (- (* ?x1013 ?x700) (* _a_3_ ?x479)) (* (* 2.0 l_0_1_14) l_0_1_16))))
 (= (- ?x1090 (* (* 2.0 l_0_1_15) l_0_1_17)) 0.0)))))))
(assert
 (let ((?x981 (* l_0_1_18 l_0_1_18)))
 (let ((?x978 (* l_0_1_17 l_0_1_17)))
 (let ((?x975 (* l_0_1_16 l_0_1_16)))
 (let ((?x478 (* l_0_1_6 l_0_1_6)))
 (let ((?x479 (+ (+ (* l_0_1_4 l_0_1_4) (* l_0_1_5 l_0_1_5)) ?x478)))
 (let ((?x1013 (- _a_2_)))
 (= (- (- (- (* ?x1013 ?x479) ?x975) ?x978) ?x981) 0.0))))))))
(assert
 (let ((?x700 (+ (* (* 2.0 l_0_1_2) l_0_1_4) (* (* 2.0 l_0_1_3) l_0_1_5))))
 (let ((?x1153 (- (* (- _a_3_) (+ (* l_0_1_2 l_0_1_2) (* l_0_1_3 l_0_1_3))) (* _a_4_ ?x700))))
 (let ((?x1159 (- (- ?x1153 (* (* 2.0 l_0_1_20) l_0_1_22)) (* (* 2.0 l_0_1_21) l_0_1_23))))
 (= ?x1159 0.0)))))
(assert
 (let ((?x1200 (- (* (* (* (- 2.0) _a_4_) l_0_1_1) l_0_1_2) (* _a_5_ (+ (* l_0_1_2 l_0_1_2) (* l_0_1_3 l_0_1_3))))))
 (let ((?x1205 (+ (- ?x1200 (* (* 2.0 l_0_1_19) l_0_1_20)) (* 10.0 (* l_0_1_20 l_0_1_20)))))
 (= (+ ?x1205 (* 10.0 (* l_0_1_21 l_0_1_21))) 0.0))))
(assert
 (let ((?x1206 (* l_0_1_21 l_0_1_21)))
 (let ((?x1203 (* l_0_1_20 l_0_1_20)))
 (let ((?x1236 (- (* (- _a_4_) (+ (* l_0_1_2 l_0_1_2) (* l_0_1_3 l_0_1_3))) ?x1203)))
 (= (- ?x1236 ?x1206) 0.0)))))
(assert
 (>= l_0_1_1 0.0))
(assert
 (>= l_0_1_3 0.0))
(assert
 (>= l_0_1_6 0.0))
(assert
 (>= l_0_1_7 0.0))
(assert
 (>= l_0_1_9 0.0))
(assert
 (>= l_0_1_12 0.0))
(assert
 (>= l_0_1_13 0.0))
(assert
 (>= l_0_1_15 0.0))
(assert
 (>= l_0_1_18 0.0))
(assert
 (>= l_0_1_19 0.0))
(assert
 (>= l_0_1_21 0.0))
(assert
 (>= l_0_1_24 0.0))
(assert
 (>= l_0_1_25 0.0))
(assert
 (>= l_0_1_27 0.0))
(assert
 (>= l_0_1_30 0.0))
(assert
 (let ((?x1272 (* l_0_2_31 l_0_2_31)))
 (let ((?x1273 (- (- (* (* (- _a_0_) l_0_2_1) l_0_2_1) (* l_0_2_25 l_0_2_25)) ?x1272)))
 (= (+ ?x1273 (* 5.0 (* l_0_2_7 l_0_2_7))) 0.0))))
(assert
 (let ((?x1294 (* l_0_2_19 l_0_2_19)))
 (let ((?x1295 (* 10.0 ?x1294)))
 (let ((?x1293 (- (* (* (* (- 2.0) _a_0_) l_0_2_1) l_0_2_2) (* (* _a_5_ l_0_2_1) l_0_2_1))))
 (let ((?x1302 (- (- (+ ?x1293 ?x1295) (* (* 2.0 l_0_2_25) l_0_2_26)) (* (* 2.0 l_0_2_31) l_0_2_32))))
 (= (- (+ ?x1302 (* (* 10.0 l_0_2_7) l_0_2_8)) 1.0) 0.0))))))
(assert
 (let ((?x1373 (* l_0_2_36 l_0_2_36)))
 (let ((?x1371 (* l_0_2_35 l_0_2_35)))
 (let ((?x1369 (* l_0_2_34 l_0_2_34)))
 (let ((?x1367 (* l_0_2_30 l_0_2_30)))
 (let ((?x1365 (* l_0_2_29 l_0_2_29)))
 (let ((?x1363 (* l_0_2_28 l_0_2_28)))
 (let ((?x1361 (* l_0_2_13 l_0_2_13)))
 (let ((?x1355 (* l_0_2_12 l_0_2_12)))
 (let ((?x1356 (* 5.0 ?x1355)))
 (let ((?x1352 (* l_0_2_11 l_0_2_11)))
 (let ((?x1353 (* 5.0 ?x1352)))
 (let ((?x1349 (* l_0_2_10 l_0_2_10)))
 (let ((?x1350 (* 5.0 ?x1349)))
 (let ((?x1337 (* l_0_2_6 l_0_2_6)))
 (let ((?x1338 (+ (+ (* l_0_2_4 l_0_2_4) (* l_0_2_5 l_0_2_5)) ?x1337)))
 (let ((?x455 (- _a_0_)))
 (let ((?x1345 (- (- (* ?x455 ?x1338) (* (* (* 2.0 _a_1_) l_0_2_1) l_0_2_4)) (* (* _a_2_ l_0_2_1) l_0_2_1))))
 (let ((?x1357 (+ (+ (+ (- ?x1345 (* (* 2.0 l_0_2_10) l_0_2_7)) ?x1350) ?x1353) ?x1356)))
 (let ((?x1366 (- (- (- (+ ?x1357 (* (* 20.0 l_0_2_13) l_0_2_16)) ?x1361) ?x1363) ?x1365)))
 (= (+ (- (- (- (- ?x1366 ?x1367) ?x1369) ?x1371) ?x1373) (/ 7.0 2.0)) 0.0)))))))))))))))))))))
(assert
 (let ((?x1274 (* l_0_2_7 l_0_2_7)))
 (let ((?x1361 (* l_0_2_13 l_0_2_13)))
 (let ((?x1434 (* 10.0 ?x1361)))
 (let ((?x1430 (- (* (* (* (- 2.0) _a_0_) l_0_2_1) l_0_2_4) (* (* _a_1_ l_0_2_1) l_0_2_1))))
 (let ((?x1437 (- (+ (+ ?x1430 (* (* 10.0 l_0_2_10) l_0_2_7)) ?x1434) (* (* 2.0 l_0_2_25) l_0_2_28))))
 (= (+ (- (- ?x1437 (* (* 2.0 l_0_2_31) l_0_2_34)) ?x1274) 3.0) 0.0)))))))
(assert
 (let ((?x1493 (* l_0_2_33 l_0_2_33)))
 (let ((?x1491 (* l_0_2_32 l_0_2_32)))
 (let ((?x1489 (* l_0_2_27 l_0_2_27)))
 (let ((?x1487 (* l_0_2_26 l_0_2_26)))
 (let ((?x1294 (* l_0_2_19 l_0_2_19)))
 (let ((?x1479 (- (* (- _a_0_) (+ (* l_0_2_2 l_0_2_2) (* l_0_2_3 l_0_2_3))) (* (* _a_4_ l_0_2_1) l_0_2_1))))
 (let ((?x1485 (+ (- ?x1479 (* (* (* 2.0 _a_5_) l_0_2_1) l_0_2_2)) (* (* 20.0 l_0_2_19) l_0_2_20))))
 (let ((?x1497 (+ (- (- (- (- (- ?x1485 ?x1294) ?x1487) ?x1489) ?x1491) ?x1493) (* 5.0 (* l_0_2_8 l_0_2_8)))))
 (= (+ ?x1497 (* 5.0 (* l_0_2_9 l_0_2_9))) 0.0))))))))))
(assert
 (let ((?x1544 (+ (* (* 2.0 l_0_2_2) l_0_2_4) (* (* 2.0 l_0_2_3) l_0_2_5))))
 (let ((?x455 (- _a_0_)))
 (let ((?x1550 (- (- (* ?x455 ?x1544) (* (* (* 2.0 _a_1_) l_0_2_1) l_0_2_2)) (* (* _a_3_ l_0_2_1) l_0_2_1))))
 (let ((?x1554 (+ (- ?x1550 (* (* (* 2.0 _a_5_) l_0_2_1) l_0_2_4)) (* (* 10.0 l_0_2_10) l_0_2_8))))
 (let ((?x1559 (+ (+ ?x1554 (* (* 10.0 l_0_2_11) l_0_2_9)) (* (* 20.0 l_0_2_13) l_0_2_14))))
 (let ((?x1564 (- (+ ?x1559 (* (* 20.0 l_0_2_19) l_0_2_22)) (* (* 2.0 l_0_2_26) l_0_2_28))))
 (let ((?x1570 (- (- ?x1564 (* (* 2.0 l_0_2_27) l_0_2_29)) (* (* 2.0 l_0_2_32) l_0_2_34))))
 (let ((?x1576 (- (- ?x1570 (* (* 2.0 l_0_2_33) l_0_2_35)) (* (* 2.0 l_0_2_7) l_0_2_8))))
 (= ?x1576 0.0))))))))))
(assert
 (let ((?x1498 (* l_0_2_9 l_0_2_9)))
 (let ((?x1495 (* l_0_2_8 l_0_2_8)))
 (let ((?x1661 (* l_0_2_15 l_0_2_15)))
 (let ((?x1662 (* 10.0 ?x1661)))
 (let ((?x1658 (* l_0_2_14 l_0_2_14)))
 (let ((?x1659 (* 10.0 ?x1658)))
 (let ((?x1544 (+ (* (* 2.0 l_0_2_2) l_0_2_4) (* (* 2.0 l_0_2_3) l_0_2_5))))
 (let ((?x1652 (- (* (- _a_1_) (+ (* l_0_2_2 l_0_2_2) (* l_0_2_3 l_0_2_3))) (* (* (* 2.0 _a_3_) l_0_2_1) l_0_2_2))))
 (let ((?x1657 (- (- ?x1652 (* (* (* 2.0 _a_4_) l_0_2_1) l_0_2_4)) (* _a_5_ ?x1544))))
 (let ((?x1669 (+ (- (+ (+ ?x1657 ?x1659) ?x1662) (* (* 2.0 l_0_2_19) l_0_2_22)) (* (* 20.0 l_0_2_20) l_0_2_22))))
 (= (- (- (+ ?x1669 (* (* 20.0 l_0_2_21) l_0_2_23)) ?x1495) ?x1498) 0.0))))))))))))
(assert
 (let ((?x1337 (* l_0_2_6 l_0_2_6)))
 (let ((?x1338 (+ (+ (* l_0_2_4 l_0_2_4) (* l_0_2_5 l_0_2_5)) ?x1337)))
 (let ((?x1544 (+ (* (* 2.0 l_0_2_2) l_0_2_4) (* (* 2.0 l_0_2_3) l_0_2_5))))
 (let ((?x787 (- _a_1_)))
 (let ((?x1739 (- (- (* ?x787 ?x1544) (* (* (* 2.0 _a_2_) l_0_2_1) l_0_2_2)) (* (* (* 2.0 _a_3_) l_0_2_1) l_0_2_4))))
 (let ((?x1746 (- (- (- ?x1739 (* _a_5_ ?x1338)) (* (* 2.0 l_0_2_10) l_0_2_8)) (* (* 2.0 l_0_2_11) l_0_2_9))))
 (let ((?x1752 (+ (- ?x1746 (* (* 2.0 l_0_2_13) l_0_2_14)) (* (* 20.0 l_0_2_14) l_0_2_16))))
 (let ((?x1758 (+ (+ ?x1752 (* (* 20.0 l_0_2_15) l_0_2_17)) (* 10.0 (* l_0_2_22 l_0_2_22)))))
 (let ((?x1764 (+ (+ ?x1758 (* 10.0 (* l_0_2_23 l_0_2_23))) (* 10.0 (* l_0_2_24 l_0_2_24)))))
 (= ?x1764 0.0)))))))))))
(assert
 (let ((?x1355 (* l_0_2_12 l_0_2_12)))
 (let ((?x1352 (* l_0_2_11 l_0_2_11)))
 (let ((?x1349 (* l_0_2_10 l_0_2_10)))
 (let ((?x1337 (* l_0_2_6 l_0_2_6)))
 (let ((?x1338 (+ (+ (* l_0_2_4 l_0_2_4) (* l_0_2_5 l_0_2_5)) ?x1337)))
 (let ((?x787 (- _a_1_)))
 (let ((?x1827 (- (- (* ?x787 ?x1338) (* (* (* 2.0 _a_2_) l_0_2_1) l_0_2_4)) ?x1349)))
 (let ((?x1834 (+ (- (- (- ?x1827 ?x1352) ?x1355) (* (* 2.0 l_0_2_13) l_0_2_16)) (* 10.0 (* l_0_2_16 l_0_2_16)))))
 (let ((?x1840 (+ (+ ?x1834 (* 10.0 (* l_0_2_17 l_0_2_17))) (* 10.0 (* l_0_2_18 l_0_2_18)))))
 (= ?x1840 0.0)))))))))))
(assert
 (let ((?x1762 (* l_0_2_24 l_0_2_24)))
 (let ((?x1759 (* l_0_2_23 l_0_2_23)))
 (let ((?x1756 (* l_0_2_22 l_0_2_22)))
 (let ((?x1661 (* l_0_2_15 l_0_2_15)))
 (let ((?x1658 (* l_0_2_14 l_0_2_14)))
 (let ((?x1337 (* l_0_2_6 l_0_2_6)))
 (let ((?x1338 (+ (+ (* l_0_2_4 l_0_2_4) (* l_0_2_5 l_0_2_5)) ?x1337)))
 (let ((?x1544 (+ (* (* 2.0 l_0_2_2) l_0_2_4) (* (* 2.0 l_0_2_3) l_0_2_5))))
 (let ((?x1877 (- (* (- _a_2_) (+ (* l_0_2_2 l_0_2_2) (* l_0_2_3 l_0_2_3))) (* _a_3_ ?x1544))))
 (let ((?x1884 (- (- (- (- (- (- ?x1877 (* _a_4_ ?x1338)) ?x1658) ?x1661) ?x1756) ?x1759) ?x1762)))
 (= ?x1884 0.0))))))))))))
(assert
 (let ((?x1337 (* l_0_2_6 l_0_2_6)))
 (let ((?x1338 (+ (+ (* l_0_2_4 l_0_2_4) (* l_0_2_5 l_0_2_5)) ?x1337)))
 (let ((?x1544 (+ (* (* 2.0 l_0_2_2) l_0_2_4) (* (* 2.0 l_0_2_3) l_0_2_5))))
 (let ((?x1013 (- _a_2_)))
 (let ((?x1945 (- (- (* ?x1013 ?x1544) (* _a_3_ ?x1338)) (* (* 2.0 l_0_2_14) l_0_2_16))))
 (= (- ?x1945 (* (* 2.0 l_0_2_15) l_0_2_17)) 0.0)))))))
(assert
 (let ((?x1838 (* l_0_2_18 l_0_2_18)))
 (let ((?x1835 (* l_0_2_17 l_0_2_17)))
 (let ((?x1832 (* l_0_2_16 l_0_2_16)))
 (let ((?x1337 (* l_0_2_6 l_0_2_6)))
 (let ((?x1338 (+ (+ (* l_0_2_4 l_0_2_4) (* l_0_2_5 l_0_2_5)) ?x1337)))
 (let ((?x1013 (- _a_2_)))
 (= (- (- (- (* ?x1013 ?x1338) ?x1832) ?x1835) ?x1838) 0.0))))))))
(assert
 (let ((?x1544 (+ (* (* 2.0 l_0_2_2) l_0_2_4) (* (* 2.0 l_0_2_3) l_0_2_5))))
 (let ((?x2007 (- (* (- _a_3_) (+ (* l_0_2_2 l_0_2_2) (* l_0_2_3 l_0_2_3))) (* _a_4_ ?x1544))))
 (let ((?x2013 (- (- ?x2007 (* (* 2.0 l_0_2_20) l_0_2_22)) (* (* 2.0 l_0_2_21) l_0_2_23))))
 (= ?x2013 0.0)))))
(assert
 (let ((?x2052 (- (* (* (* (- 2.0) _a_4_) l_0_2_1) l_0_2_2) (* _a_5_ (+ (* l_0_2_2 l_0_2_2) (* l_0_2_3 l_0_2_3))))))
 (let ((?x2057 (+ (- ?x2052 (* (* 2.0 l_0_2_19) l_0_2_20)) (* 10.0 (* l_0_2_20 l_0_2_20)))))
 (= (+ ?x2057 (* 10.0 (* l_0_2_21 l_0_2_21))) 0.0))))
(assert
 (let ((?x2058 (* l_0_2_21 l_0_2_21)))
 (let ((?x2055 (* l_0_2_20 l_0_2_20)))
 (let ((?x2087 (- (* (- _a_4_) (+ (* l_0_2_2 l_0_2_2) (* l_0_2_3 l_0_2_3))) ?x2055)))
 (= (- ?x2087 ?x2058) 0.0)))))
(assert
 (>= l_0_2_1 0.0))
(assert
 (>= l_0_2_3 0.0))
(assert
 (>= l_0_2_6 0.0))
(assert
 (>= l_0_2_7 0.0))
(assert
 (>= l_0_2_9 0.0))
(assert
 (>= l_0_2_12 0.0))
(assert
 (>= l_0_2_13 0.0))
(assert
 (>= l_0_2_15 0.0))
(assert
 (>= l_0_2_18 0.0))
(assert
 (>= l_0_2_19 0.0))
(assert
 (>= l_0_2_21 0.0))
(assert
 (>= l_0_2_24 0.0))
(assert
 (>= l_0_2_25 0.0))
(assert
 (>= l_0_2_27 0.0))
(assert
 (>= l_0_2_30 0.0))
(assert
 (>= l_0_2_31 0.0))
(assert
 (>= l_0_2_33 0.0))
(assert
 (>= l_0_2_36 0.0))
(assert
 (let ((?x2136 (* l_0_3_25 l_0_3_25)))
 (let ((?x2134 (* (/ 11.0 2.0) _a_5_)))
 (let ((?x2132 (* (/ 121.0 4.0) _a_4_)))
 (let ((?x2129 (* (/ 11.0 2.0) _a_3_)))
 (let ((?x2125 (+ (+ (* (* (- _a_0_) l_0_3_1) l_0_3_1) _a_0_) (* 1.0 _a_1_))))
 (let ((?x2140 (- (- (+ (+ (+ (+ ?x2125 (* 1.0 _a_2_)) ?x2129) ?x2132) ?x2134) ?x2136) (* (* 5.0 l_0_3_7) l_0_3_7))))
 (= ?x2140 0.0))))))))
(assert
 (let ((?x2148 (* l_0_3_7 l_0_3_7)))
 (let ((?x2134 (* (/ 11.0 2.0) _a_5_)))
 (let ((?x2166 (* (/ 121.0 2.0) _a_4_)))
 (let ((?x2163 (* 11.0 _a_3_)))
 (let ((?x877 (* 2.0 _a_2_)))
 (let ((?x2159 (- (* (* (* (- 2.0) _a_0_) l_0_3_1) l_0_3_4) (* (* _a_1_ l_0_3_1) l_0_3_1))))
 (let ((?x2171 (- (+ (+ (+ (+ (+ ?x2159 _a_1_) ?x877) ?x2163) ?x2166) ?x2134) (* (* 10.0 l_0_3_10) l_0_3_7))))
 (let ((?x2177 (- (- ?x2171 (* (* 10.0 l_0_3_13) l_0_3_13)) (* (* 2.0 l_0_3_25) l_0_3_28))))
 (= (+ ?x2177 ?x2148) 0.0))))))))))
(assert
 (let ((?x2242 (* l_0_3_30 l_0_3_30)))
 (let ((?x2240 (* l_0_3_29 l_0_3_29)))
 (let ((?x2238 (* l_0_3_28 l_0_3_28)))
 (let ((?x2193 (* l_0_3_13 l_0_3_13)))
 (let ((?x2132 (* (/ 121.0 4.0) _a_4_)))
 (let ((?x2129 (* (/ 11.0 2.0) _a_3_)))
 (let ((?x2210 (* l_0_3_6 l_0_3_6)))
 (let ((?x2211 (+ (+ (* l_0_3_4 l_0_3_4) (* l_0_3_5 l_0_3_5)) ?x2210)))
 (let ((?x455 (- _a_0_)))
 (let ((?x2218 (- (- (* ?x455 ?x2211) (* (* (* 2.0 _a_1_) l_0_3_1) l_0_3_4)) (* (* _a_2_ l_0_3_1) l_0_3_1))))
 (let ((?x2224 (+ (+ (+ (+ ?x2218 _a_2_) ?x2129) ?x2132) (* (* 2.0 l_0_3_10) l_0_3_7))))
 (let ((?x2230 (- (- ?x2224 (* (* 5.0 l_0_3_10) l_0_3_10)) (* (* 5.0 l_0_3_11) l_0_3_11))))
 (let ((?x2236 (- (- ?x2230 (* (* 5.0 l_0_3_12) l_0_3_12)) (* (* 20.0 l_0_3_13) l_0_3_16))))
 (= (- (- (- (+ ?x2236 ?x2193) ?x2238) ?x2240) ?x2242) 0.0)))))))))))))))
(assert
 (let ((?x2311 (* 11.0 _a_4_)))
 (let ((?x2303 (+ (* (* 2.0 l_0_3_2) l_0_3_4) (* (* 2.0 l_0_3_3) l_0_3_5))))
 (let ((?x455 (- _a_0_)))
 (let ((?x2309 (- (- (* ?x455 ?x2303) (* (* (* 2.0 _a_1_) l_0_3_1) l_0_3_2)) (* (* _a_3_ l_0_3_1) l_0_3_1))))
 (let ((?x2315 (- (+ (+ ?x2309 _a_3_) ?x2311) (* (* (* 2.0 _a_5_) l_0_3_1) l_0_3_4))))
 (let ((?x2320 (- (- ?x2315 (* (* 10.0 l_0_3_10) l_0_3_8)) (* (* 10.0 l_0_3_11) l_0_3_9))))
 (let ((?x2325 (- (- ?x2320 (* (* 20.0 l_0_3_13) l_0_3_14)) (* (* 20.0 l_0_3_19) l_0_3_22))))
 (let ((?x2331 (- (- ?x2325 (* (* 2.0 l_0_3_26) l_0_3_28)) (* (* 2.0 l_0_3_27) l_0_3_29))))
 (= (+ ?x2331 (* (* 2.0 l_0_3_7) l_0_3_8)) 0.0))))))))))
(assert
 (let ((?x2311 (* 11.0 _a_4_)))
 (let ((?x2406 (+ (+ (* (* (* (- 2.0) _a_0_) l_0_3_1) l_0_3_2) (* 1.0 _a_3_)) ?x2311)))
 (let ((?x2413 (- (+ (- ?x2406 (* (* _a_5_ l_0_3_1) l_0_3_1)) _a_5_) (* (* 10.0 l_0_3_19) l_0_3_19))))
 (let ((?x2418 (- (- ?x2413 (* (* 2.0 l_0_3_25) l_0_3_26)) (* (* 10.0 l_0_3_7) l_0_3_8))))
 (= ?x2418 0.0))))))
(assert
 (let ((?x2463 (* l_0_3_27 l_0_3_27)))
 (let ((?x2461 (* l_0_3_26 l_0_3_26)))
 (let ((?x2430 (* l_0_3_19 l_0_3_19)))
 (let ((?x2454 (- (* (- _a_0_) (+ (* l_0_3_2 l_0_3_2) (* l_0_3_3 l_0_3_3))) (* (* _a_4_ l_0_3_1) l_0_3_1))))
 (let ((?x2459 (- (- (+ ?x2454 _a_4_) (* (* (* 2.0 _a_5_) l_0_3_1) l_0_3_2)) (* (* 20.0 l_0_3_19) l_0_3_20))))
 (let ((?x2467 (- (- (- (+ ?x2459 ?x2430) ?x2461) ?x2463) (* (* 5.0 l_0_3_8) l_0_3_8))))
 (= (- ?x2467 (* (* 5.0 l_0_3_9) l_0_3_9)) 0.0))))))))
(assert
 (let ((?x2508 (* l_0_3_9 l_0_3_9)))
 (let ((?x2502 (* l_0_3_8 l_0_3_8)))
 (let ((?x2303 (+ (* (* 2.0 l_0_3_2) l_0_3_4) (* (* 2.0 l_0_3_3) l_0_3_5))))
 (let ((?x2518 (- (* (- _a_1_) (+ (* l_0_3_2 l_0_3_2) (* l_0_3_3 l_0_3_3))) (* (* (* 2.0 _a_3_) l_0_3_1) l_0_3_2))))
 (let ((?x2523 (- (- ?x2518 (* (* (* 2.0 _a_4_) l_0_3_1) l_0_3_4)) (* _a_5_ ?x2303))))
 (let ((?x2529 (- (- ?x2523 (* (* 10.0 l_0_3_14) l_0_3_14)) (* (* 10.0 l_0_3_15) l_0_3_15))))
 (let ((?x2535 (- (+ ?x2529 (* (* 2.0 l_0_3_19) l_0_3_22)) (* (* 20.0 l_0_3_20) l_0_3_22))))
 (= (+ (+ (- ?x2535 (* (* 20.0 l_0_3_21) l_0_3_23)) ?x2502) ?x2508) 0.0)))))))))
(assert
 (let ((?x2210 (* l_0_3_6 l_0_3_6)))
 (let ((?x2211 (+ (+ (* l_0_3_4 l_0_3_4) (* l_0_3_5 l_0_3_5)) ?x2210)))
 (let ((?x2303 (+ (* (* 2.0 l_0_3_2) l_0_3_4) (* (* 2.0 l_0_3_3) l_0_3_5))))
 (let ((?x787 (- _a_1_)))
 (let ((?x2610 (- (- (* ?x787 ?x2303) (* (* (* 2.0 _a_2_) l_0_3_1) l_0_3_2)) (* (* (* 2.0 _a_3_) l_0_3_1) l_0_3_4))))
 (let ((?x2617 (+ (+ (- ?x2610 (* _a_5_ ?x2211)) (* (* 2.0 l_0_3_10) l_0_3_8)) (* (* 2.0 l_0_3_11) l_0_3_9))))
 (let ((?x2623 (- (+ ?x2617 (* (* 2.0 l_0_3_13) l_0_3_14)) (* (* 20.0 l_0_3_14) l_0_3_16))))
 (let ((?x2629 (- (- ?x2623 (* (* 20.0 l_0_3_15) l_0_3_17)) (* (* 10.0 l_0_3_22) l_0_3_22))))
 (let ((?x2635 (- (- ?x2629 (* (* 10.0 l_0_3_23) l_0_3_23)) (* (* 10.0 l_0_3_24) l_0_3_24))))
 (= ?x2635 0.0)))))))))))
(assert
 (let ((?x2276 (* l_0_3_12 l_0_3_12)))
 (let ((?x2270 (* l_0_3_11 l_0_3_11)))
 (let ((?x2264 (* l_0_3_10 l_0_3_10)))
 (let ((?x2210 (* l_0_3_6 l_0_3_6)))
 (let ((?x2211 (+ (+ (* l_0_3_4 l_0_3_4) (* l_0_3_5 l_0_3_5)) ?x2210)))
 (let ((?x787 (- _a_1_)))
 (let ((?x2709 (+ (- (* ?x787 ?x2211) (* (* (* 2.0 _a_2_) l_0_3_1) l_0_3_4)) ?x2264)))
 (let ((?x2716 (- (+ (+ (+ ?x2709 ?x2270) ?x2276) (* (* 2.0 l_0_3_13) l_0_3_16)) (* (* 10.0 l_0_3_16) l_0_3_16))))
 (let ((?x2722 (- (- ?x2716 (* (* 10.0 l_0_3_17) l_0_3_17)) (* (* 10.0 l_0_3_18) l_0_3_18))))
 (= ?x2722 0.0)))))))))))
(assert
 (let ((?x2699 (* l_0_3_24 l_0_3_24)))
 (let ((?x2693 (* l_0_3_23 l_0_3_23)))
 (let ((?x2687 (* l_0_3_22 l_0_3_22)))
 (let ((?x2583 (* l_0_3_15 l_0_3_15)))
 (let ((?x2577 (* l_0_3_14 l_0_3_14)))
 (let ((?x2210 (* l_0_3_6 l_0_3_6)))
 (let ((?x2211 (+ (+ (* l_0_3_4 l_0_3_4) (* l_0_3_5 l_0_3_5)) ?x2210)))
 (let ((?x2303 (+ (* (* 2.0 l_0_3_2) l_0_3_4) (* (* 2.0 l_0_3_3) l_0_3_5))))
 (let ((?x2761 (- (* (- _a_2_) (+ (* l_0_3_2 l_0_3_2) (* l_0_3_3 l_0_3_3))) (* _a_3_ ?x2303))))
 (let ((?x2768 (+ (+ (+ (+ (+ (- ?x2761 (* _a_4_ ?x2211)) ?x2577) ?x2583) ?x2687) ?x2693) ?x2699)))
 (= ?x2768 0.0))))))))))))
(assert
 (let ((?x2210 (* l_0_3_6 l_0_3_6)))
 (let ((?x2211 (+ (+ (* l_0_3_4 l_0_3_4) (* l_0_3_5 l_0_3_5)) ?x2210)))
 (let ((?x2303 (+ (* (* 2.0 l_0_3_2) l_0_3_4) (* (* 2.0 l_0_3_3) l_0_3_5))))
 (let ((?x1013 (- _a_2_)))
 (let ((?x2814 (+ (- (* ?x1013 ?x2303) (* _a_3_ ?x2211)) (* (* 2.0 l_0_3_14) l_0_3_16))))
 (= (+ ?x2814 (* (* 2.0 l_0_3_15) l_0_3_17)) 0.0)))))))
(assert
 (let ((?x2752 (* l_0_3_18 l_0_3_18)))
 (let ((?x2746 (* l_0_3_17 l_0_3_17)))
 (let ((?x2740 (* l_0_3_16 l_0_3_16)))
 (let ((?x2210 (* l_0_3_6 l_0_3_6)))
 (let ((?x2211 (+ (+ (* l_0_3_4 l_0_3_4) (* l_0_3_5 l_0_3_5)) ?x2210)))
 (let ((?x1013 (- _a_2_)))
 (= (+ (+ (+ (* ?x1013 ?x2211) ?x2740) ?x2746) ?x2752) 0.0))))))))
(assert
 (let ((?x2303 (+ (* (* 2.0 l_0_3_2) l_0_3_4) (* (* 2.0 l_0_3_3) l_0_3_5))))
 (let ((?x2859 (- (* (- _a_3_) (+ (* l_0_3_2 l_0_3_2) (* l_0_3_3 l_0_3_3))) (* _a_4_ ?x2303))))
 (let ((?x2865 (+ (+ ?x2859 (* (* 2.0 l_0_3_20) l_0_3_22)) (* (* 2.0 l_0_3_21) l_0_3_23))))
 (= ?x2865 0.0)))))
(assert
 (let ((?x2896 (- (* (* (* (- 2.0) _a_4_) l_0_3_1) l_0_3_2) (* _a_5_ (+ (* l_0_3_2 l_0_3_2) (* l_0_3_3 l_0_3_3))))))
 (let ((?x2901 (- (+ ?x2896 (* (* 2.0 l_0_3_19) l_0_3_20)) (* (* 10.0 l_0_3_20) l_0_3_20))))
 (= (- ?x2901 (* (* 10.0 l_0_3_21) l_0_3_21)) 0.0))))
(assert
 (let ((?x2928 (* l_0_3_21 l_0_3_21)))
 (let ((?x2922 (* l_0_3_20 l_0_3_20)))
 (let ((?x2936 (+ (* (- _a_4_) (+ (* l_0_3_2 l_0_3_2) (* l_0_3_3 l_0_3_3))) ?x2922)))
 (= (+ ?x2936 ?x2928) 0.0)))))
(assert
 (>= l_0_3_1 0.0))
(assert
 (>= l_0_3_3 0.0))
(assert
 (>= l_0_3_6 0.0))
(assert
 (>= l_0_3_7 0.0))
(assert
 (>= l_0_3_9 0.0))
(assert
 (>= l_0_3_12 0.0))
(assert
 (>= l_0_3_13 0.0))
(assert
 (>= l_0_3_15 0.0))
(assert
 (>= l_0_3_18 0.0))
(assert
 (>= l_0_3_19 0.0))
(assert
 (>= l_0_3_21 0.0))
(assert
 (>= l_0_3_24 0.0))
(assert
 (>= l_0_3_25 0.0))
(assert
 (>= l_0_3_27 0.0))
(assert
 (>= l_0_3_30 0.0))
(check-sat)
(get-model)